25 500
  0     35.0     35.0       0.0     1000.0      0.0       0.0       0.0  
  1     41.0     49.0       0.0      974.0     10.0      10.0      10.0  
  2     35.0     17.0       0.0      972.0     10.0      13.0       7.0  
  3     55.0     45.0       0.0      967.0     10.0      17.0      13.0  
  4     55.0     20.0      620.0     860.0     10.0      28.0      19.0  
  5     15.0     30.0       0.0      969.0     10.0      11.0      26.0  
  6     25.0     30.0       0.0      978.0     10.0       5.0       3.0  
  7     20.0     50.0       0.0      968.0     10.0       8.0       5.0  
  8     10.0     43.0      323.0     563.0     10.0      18.0       9.0  
  9     55.0     60.0      329.0     569.0     10.0      16.0      16.0  
 10     30.0     60.0       0.0      964.0     10.0      15.0      16.0  
 11     20.0     65.0      146.0     386.0     10.0       9.0      12.0  
 12     50.0     35.0       0.0      975.0     10.0      35.0      19.0  
 13     30.0     25.0      639.0     879.0     10.0      45.0      23.0  
 14     15.0     10.0       0.0      957.0     10.0      19.0      20.0  
 15     30.0      5.0      118.0     358.0     10.0       5.0       8.0  
 16     10.0     20.0       0.0      960.0     10.0      32.0      19.0  
 17      5.0     30.0       0.0      959.0     10.0       1.0       2.0  
 18     20.0     40.0       0.0      974.0     10.0       9.0      12.0  
 19     15.0     60.0       0.0      957.0     10.0      19.0      17.0  
 20     45.0     65.0       0.0      958.0     10.0      13.0       9.0  
 21     45.0     20.0       0.0      971.0     10.0      15.0      11.0  
 22     45.0     10.0       0.0      963.0     10.0       7.0      18.0  
 23     55.0      5.0      146.0     386.0     10.0      46.0      29.0  
 24     65.0     35.0       0.0      960.0     10.0       6.0       3.0  
 25     65.0     20.0      716.0     956.0     10.0       0.0       6.0  
